StudentsNr = 10;
InstructorsNr = 75;
DaysNr = 2;
SlotsPerDay = 10;
AvailabilitySlotsLenght = 2;
RoomNr = 2;
ProgrammNr = 1;
DegreeNr = 1;
RolesNr = 0;
CoursesNr = 10;
InstructorsProgramm = [{1}, {1}, {1}, {1}, {1}, {1}, {1}, {1}, {1}, {1}, {1}, {1}, {1}, {1}, {1}, {1}, {1}, {1}, {1}, {1}, {1}, {1}, {1}, {1}, {1}, {1}, {1}, {1}, {1}, {1}, {1}, {1}, {1}, {1}, {1}, {1}, {1}, {1}, {1}, {1}, {1}, {1}, {1}, {1}, {1}, {1}, {1}, {1}, {1}, {1}, {1}, {1}, {1}, {1}, {1}, {1}, {1}, {1}, {1}, {1}, {1}, {1}, {1}, {1}, {1}, {1}, {1}, {1}, {1}, {1}, {1}, {1}, {1}, {1}, {1}];
InstructorRolesPerProgramm = array2d(1..ProgrammNr,{},[]);
InstructorsAvailability = [|0, 1, 1, 1, 0, 1, 1, 1, 1, 1, |1, 1, 1, 1, 0, 1, 1, 0, 1, 1, |1, 1, 1, 1, 1, 1, 1, 1, 1, 1, |1, 1, 1, 1, 1, 1, 1, 1, 1, 1, |0, 1, 1, 1, 1, 1, 1, 0, 0, 0, |0, 0, 1, 1, 1, 0, 1, 1, 1, 1, |1, 1, 1, 1, 1, 1, 1, 1, 1, 0, |0, 0, 0, 0, 0, 1, 1, 1, 1, 1, |0, 0, 1, 1, 1, 0, 0, 1, 1, 1, |0, 1, 1, 0, 1, 1, 1, 0, 0, 0, |1, 1, 1, 1, 1, 1, 0, 0, 1, 1, |0, 1, 1, 0, 1, 1, 1, 0, 0, 1, |1, 1, 1, 1, 1, 1, 1, 1, 0, 0, |1, 1, 1, 1, 1, 1, 1, 1, 1, 1, |0, 0, 1, 0, 1, 1, 1, 1, 1, 1, |1, 1, 1, 0, 1, 1, 1, 1, 1, 0, |0, 1, 1, 1, 1, 1, 1, 1, 1, 1, |1, 1, 1, 1, 0, 0, 1, 1, 1, 1, |1, 1, 1, 1, 0, 1, 0, 1, 0, 1, |0, 0, 0, 0, 0, 1, 1, 1, 1, 1, |0, 1, 1, 1, 1, 0, 1, 1, 1, 0, |1, 1, 1, 1, 0, 0, 0, 1, 1, 0, |1, 1, 0, 1, 1, 1, 1, 1, 1, 1, |1, 0, 0, 1, 1, 1, 1, 0, 1, 1, |1, 1, 1, 1, 1, 1, 1, 1, 1, 1, |0, 0, 1, 1, 0, 0, 0, 1, 1, 1, |1, 0, 0, 0, 1, 1, 1, 1, 1, 1, |1, 1, 1, 1, 1, 1, 1, 1, 1, 1, |1, 1, 0, 0, 1, 0, 1, 1, 1, 1, |0, 1, 0, 1, 1, 1, 1, 0, 1, 1, |0, 1, 1, 0, 1, 1, 1, 1, 1, 1, |1, 0, 1, 1, 1, 1, 1, 1, 1, 1, |1, 0, 1, 1, 0, 1, 1, 0, 0, 0, |1, 1, 1, 1, 1, 1, 1, 1, 1, 1, |1, 1, 1, 1, 1, 1, 1, 1, 1, 1, |1, 1, 1, 1, 1, 0, 1, 0, 0, 1, |1, 1, 1, 1, 1, 1, 1, 1, 1, 1, |1, 1, 1, 1, 1, 1, 1, 1, 1, 1, |0, 0, 0, 1, 1, 0, 1, 1, 0, 1, |1, 0, 0, 0, 0, 0, 1, 1, 1, 0, |1, 1, 0, 0, 1, 0, 0, 1, 0, 1, |0, 0, 0, 1, 1, 1, 1, 1, 1, 0, |0, 1, 1, 1, 1, 1, 1, 1, 1, 1, |0, 1, 1, 1, 1, 1, 1, 1, 1, 0, |0, 0, 0, 1, 1, 1, 1, 1, 1, 1, |1, 1, 1, 1, 1, 1, 1, 1, 1, 1, |0, 1, 0, 0, 0, 1, 1, 1, 1, 1, |0, 0, 1, 1, 1, 1, 0, 0, 0, 1, |0, 1, 0, 1, 1, 1, 0, 1, 1, 1, |0, 0, 1, 1, 1, 1, 1, 1, 1, 1, |1, 1, 1, 1, 1, 1, 1, 1, 1, 1, |1, 1, 1, 1, 1, 1, 1, 1, 1, 1, |1, 1, 1, 1, 0, 1, 1, 1, 1, 1, |1, 1, 0, 1, 1, 1, 1, 0, 1, 1, |1, 1, 1, 1, 1, 0, 0, 1, 0, 1, |0, 0, 0, 0, 1, 1, 0, 1, 0, 0, |0, 1, 1, 1, 1, 1, 1, 1, 1, 1, |1, 1, 0, 1, 1, 1, 0, 1, 1, 1, |0, 0, 1, 1, 1, 1, 0, 1, 1, 1, |0, 1, 1, 1, 0, 0, 1, 0, 1, 1, |0, 0, 1, 1, 0, 1, 1, 1, 1, 1, |0, 1, 1, 0, 1, 1, 1, 1, 1, 1, |0, 1, 1, 0, 0, 1, 1, 1, 1, 1, |0, 0, 0, 1, 1, 1, 1, 1, 1, 1, |1, 1, 1, 1, 1, 0, 1, 1, 1, 1, |0, 1, 1, 0, 1, 1, 1, 1, 1, 1, |1, 1, 1, 1, 1, 1, 1, 1, 1, 1, |1, 1, 0, 1, 1, 0, 1, 1, 1, 1, |1, 0, 0, 1, 1, 1, 1, 0, 1, 0, |1, 1, 1, 1, 1, 1, 1, 0, 1, 1, |1, 1, 1, 1, 0, 1, 1, 1, 1, 1, |0, 0, 1, 1, 1, 1, 1, 0, 0, 0, |0, 1, 1, 0, 0, 1, 1, 0, 1, 0, |0, 1, 1, 0, 1, 1, 1, 1, 1, 1, |0, 0, 1, 1, 1, 1, 1, 1, 1, 1|];
StudentsProgramm = [1, 1, 1, 1, 1, 1, 1, 1, 1, 1];
StudentsDegree = [1, 1, 1, 1, 1, 1, 1, 1, 1, 1];
StudentsSupervisorId = [74, 59, 64, 34, 46, 16, 9, 45, 57, 19];
StudentsCourseIds = [{1, 2, 4, 5, 6, 7, 8, 9, 10}, {1, 3, 4, 5, 6, 7, 8, 9, 10}, {1, 2, 3, 4, 5, 7, 8, 9, 10}, {1, 2, 3, 4, 5, 7, 8, 9, 10}, {1, 2, 3, 4, 5, 6, 7, 8, 10}, {1, 2, 3, 4, 5, 6, 7, 8, 10}, {1, 2, 3, 4, 5, 6, 8, 9, 10}, {1, 2, 3, 4, 5, 7, 8, 9, 10}, {2, 3, 4, 5, 6, 7, 8, 9, 10}, {1, 2, 3, 5, 6, 7, 8, 9, 10}];
StudentsAvailability = [|0, 0, 1, 1, 1, 1, 1, 1, 1, 1, |0, 1, 1, 1, 1, 1, 1, 1, 1, 1, |0, 0, 0, 1, 1, 1, 1, 0, 0, 1, |0, 0, 1, 1, 1, 1, 1, 1, 1, 0, |1, 1, 1, 1, 0, 0, 1, 1, 1, 1, |1, 0, 1, 1, 1, 1, 1, 1, 1, 1, |1, 1, 1, 1, 1, 1, 1, 1, 1, 1, |1, 1, 1, 1, 1, 1, 1, 1, 1, 1, |1, 1, 1, 1, 1, 1, 1, 1, 1, 1, |1, 1, 1, 1, 0, 1, 1, 1, 1, 0|];
TheoryticalMinCard = [9, 9, 9, 9, 9, 9, 9, 9, 9, 9];
CoursesInstructorIds = [{4, 5, 6, 9, 11, 13, 14, 16, 17, 18, 19, 21, 25, 26, 30, 31, 36, 38, 40, 41, 43, 44, 45, 50, 51, 52, 55, 58, 62, 63, 66, 69, 70, 71, 72, 73, 74, 75}, {1, 3, 4, 5, 7, 8, 9, 11, 14, 15, 19, 20, 21, 22, 23, 24, 25, 26, 27, 28, 29, 30, 32, 33, 34, 37, 38, 39, 41, 42, 43, 44, 45, 46, 49, 50, 52, 53, 54, 55, 56, 57, 59, 63, 64, 65, 66, 67, 68, 69}, {2, 5, 6, 7, 8, 10, 13, 14, 16, 17, 19, 21, 22, 23, 25, 26, 28, 29, 31, 32, 33, 34, 35, 37, 41, 42, 47, 48, 49, 55, 57, 59, 61, 62, 63, 64, 66, 67, 68, 70, 73, 74}, {1, 3, 4, 5, 6, 10, 13, 14, 15, 16, 17, 20, 21, 23, 26, 27, 30, 36, 41, 43, 44, 45, 46, 47, 52, 53, 54, 56, 57, 58, 59, 60, 62, 64, 68, 71, 72}, {1, 3, 4, 5, 6, 8, 11, 16, 18, 20, 26, 27, 29, 31, 33, 34, 38, 42, 43, 44, 45, 51, 53, 56, 60, 61, 62, 66, 69, 71, 73, 74, 75}, {4, 8, 9, 11, 14, 16, 18, 20, 21, 24, 25, 27, 28, 29, 35, 36, 38, 40, 41, 49, 55, 57, 60, 61, 62, 63, 68, 69, 71, 72, 74}, {2, 3, 7, 10, 17, 20, 23, 25, 26, 27, 31, 38, 40, 44, 46, 47, 51, 57, 59, 60, 62, 70, 71, 72}, {1, 2, 7, 9, 10, 13, 16, 17, 18, 21, 24, 25, 26, 27, 28, 29, 30, 31, 34, 35, 37, 38, 39, 40, 41, 45, 49, 50, 51, 55, 56, 57, 59, 62, 65, 68, 73, 75}, {42, 60}, {1, 3, 5, 6, 10, 11, 12, 14, 15, 16, 17, 21, 23, 24, 27, 28, 29, 31, 32, 36, 39, 42, 43, 44, 45, 46, 47, 49, 53, 54, 58, 60, 61, 62, 65, 66, 67, 68, 71, 73, 74}];
RolesDemands = [];
RolesContinuity = [];
ExamLen = [2, 2, 2, 2, 2, 2, 2, 2, 2, 2];
LunchTsMinLen = 2;
LunchStarts = [3..6, 12..16];
SupervisorAvailable = 5;
OptimalLunchLenght = [1, 3];
OptimalStartTs = [0, 1];
OptimalFinishTs = [1, 10];
MinimizeRooms = 300;
RolesSoftContinuity = array2d(1..2,{},[]);
SameDegreeInRoom = 10;
Mergeability = 2;
